files/input2.lp
Maximize
	obj: 3.71 x1 + 2.86 x2 + 2.2 x3 + 1.69 x4 + 1 x5
Subject To
	c1: 1 x1 <= 1.4
	c2: 1.69 x1 + 1 x2 <= 1.96
	c3: 2.2 x1 + 1.69 x2 + 1 x3 <= 2.74
	c4: 2.86 x1 + 2.2 x2 + 1.69 x3 + 1 x4 <= 3.84
	c5: 3.71 x1 + 2.86 x2 + 2.2 x3 + 1.69 x4 + 1 x5 <= 5.38
End